
Gurobi 9.0.3 (win64) logging started Sat Feb  5 17:52:43 2022

Changed value of parameter LogFile to logs\CRVRP_5-2-7-100_3_5.LOG
   Prev: logs\CRVRP_5-2-7-100_3_4.LOG  Default: 
Changed value of parameter Seed to 662743093
   Prev: 1004305283  Min: 0  Max: 2000000000  Default: 0
Parameter Threads unchanged
   Value: 2  Min: 0  Max: 1024  Default: 0
Parameter TimeLimit unchanged
   Value: 60.0  Min: 0.0  Max: inf  Default: inf
Parameter Symmetry unchanged
   Value: 2  Min: -1  Max: 2  Default: -1
Parameter Cuts unchanged
   Value: 2  Min: -1  Max: 3  Default: -1
Parameter PreDepRow unchanged
   Value: 1  Min: -1  Max: 1  Default: -1
Parameter ScaleFlag unchanged
   Value: 1  Min: -1  Max: 3  Default: -1
Parameter NormAdjust unchanged
   Value: 0  Min: -1  Max: 3  Default: -1
Gurobi Optimizer version 9.0.3 build v9.0.3rc0 (win64)
Optimize a model with 1001 rows, 810 columns and 4006 nonzeros
Model fingerprint: 0x0eed8711
Variable types: 32 continuous, 778 integer (522 binary)
Coefficient statistics:
  Matrix range     [1e+00, 1e+06]
  Objective range  [1e+00, 1e+00]
  Bounds range     [1e+00, 1e+04]
  RHS range        [1e+00, 1e+06]
Presolve removed 617 rows and 515 columns
Presolve time: 0.02s
Presolved: 384 rows, 295 columns, 2048 nonzeros
Variable types: 15 continuous, 280 integer (230 binary)
Found heuristic solution: objective 1870.3317726

Root relaxation: objective 4.231442e+02, 154 iterations, 0.00 seconds

    Nodes    |    Current Node    |     Objective Bounds      |     Work
 Expl Unexpl |  Obj  Depth IntInf | Incumbent    BestBd   Gap | It/Node Time

     0     0  423.14425    0   11 1870.33177  423.14425  77.4%     -    0s
H    0     0                     763.9488632  423.14425  44.6%     -    0s
H    0     0                     727.9244152  423.14425  41.9%     -    0s
     0     0  423.14425    0   29  727.92442  423.14425  41.9%     -    0s
     0     0  423.14425    0   28  727.92442  423.14425  41.9%     -    0s
     0     0  423.14425    0   16  727.92442  423.14425  41.9%     -    0s
H    0     0                     715.8519854  423.14425  40.9%     -    0s
     0     0  423.14425    0   23  715.85199  423.14425  40.9%     -    0s
     0     0  423.14425    0   23  715.85199  423.14425  40.9%     -    0s
H    0     0                     571.9135456  423.14425  26.0%     -    0s
H    0     0                     545.7353234  423.14425  22.5%     -    0s
     0     0  423.14425    0   16  545.73532  423.14425  22.5%     -    0s
     0     0  423.14425    0   26  545.73532  423.14425  22.5%     -    0s
     0     0  423.14425    0   29  545.73532  423.14425  22.5%     -    0s
     0     0  423.14425    0   17  545.73532  423.14425  22.5%     -    0s
     0     0  423.14425    0   17  545.73532  423.14425  22.5%     -    0s
H    0     0                     544.2135162  423.14425  22.2%     -    0s
     0     2  423.14425    0   17  544.21352  423.14425  22.2%     -    0s
H   34    35                     524.8922838  423.14425  19.4%  31.4    0s
*   66    60              19     461.0762219  423.14425  8.23%  22.6    0s
*  156    69              14     449.2160696  423.14425  5.80%  16.6    0s
*  345    98              16     441.3571560  423.14425  4.13%  16.0    0s
H  528   110                     435.8482335  423.14425  2.91%  18.7    0s

Cutting planes:
  Learned: 5
  Cover: 10
  Implied bound: 28
  Projected implied bound: 1
  Clique: 1
  MIR: 42
  StrongCG: 7
  Flow cover: 146
  GUB cover: 4
  Inf proof: 7
  Zero half: 1
  RLT: 81
  Relax-and-lift: 67

Explored 740 nodes (15530 simplex iterations) in 1.06 seconds
Thread count was 2 (of 8 available processors)

Solution count 10: 435.848 441.357 449.216 ... 727.924

Optimal solution found (tolerance 1.00e-04)
Best objective 4.358482335467e+02, best bound 4.358482335467e+02, gap 0.0000%
Discarded solution information
